NAME : eil76.tsp.opt.tour
COMMENT : [alpha=0.97, beta=1.0, q=0.99, pheromonePersistence=0.99, numAgents=1]
ERROR% : 0.0
SEED : 1
TYPE : TOUR
DIMENSION : 538
TOUR_SECTION
63
33
1
73
62
22
64
42
43
41
56
23
49
24
18
50
25
55
31
10
38
65
66
11
59
14
53
35
7
8
19
54
13
57
15
5
37
20
70
60
71
69
36
47
21
61
28
74
2
30
48
29
45
27
52
46
34
67
26
76
75
4
68
6
51
17
40
12
58
72
39
9
32
44
3
16
-1
EOF
